(declare-const term_to_project_onto4 Real)
(declare-const param0@width Int)
(declare-const term_to_project_onto3 Real)
(declare-const term_to_project_onto Real)
(declare-const term_to_project_onto0 Real)
(declare-const param1@width Int)
(declare-const param0@pos Int)
(declare-const term_to_project_onto1 Real)
(declare-const term_to_project_onto2 Real)
(declare-const param1@pos Int)
(assert (exists
         ((phi_param0?1 Int) (phi_param0@pos?2 Int) (phi_param1@pos?3 Int)
            (phi_param0@width?4 Int) (phi_param1@width?5 Int)
            (type_err?6 Int) (type_err?7 Int) (type_err?8 Int)
            (type_err?9 Int) (tr?10 Int) (type_err?11 Int) (type_err?12 Int)
            (type_err?13 Int) (type_err?14 Int) (tr?15 Int) (havoc?16 Int)
            (tr?17 Int) (|param1@width'?18| Int) (|param0@width'?19| Int)
            (|param1@pos'?20| Int) (|param0@pos'?21| Int) (|param1'?22| Int)
            (|param0'?23| Int) (param1?24 Int) (param0?25 Int))
         (and (or (and (or (< param0?25 0) (< (- param0?25) 0))
                         (<= (+ (- param1?24) tr?17) 0)
                         (or (<= (+ havoc?16 1) 0) (<= (+ (- havoc?16) 1) 0))
                         (= (+ (- phi_param0?1) tr?10) 0)
                         (= (+ (- phi_param0@pos?2) type_err?9) 0)
                         (= (+ (- phi_param1@pos?3) type_err?8) 0)
                         (= (+ (- phi_param0@width?4) type_err?7) 0)
                         (= (+ (- phi_param1@width?5) type_err?6) 0))
                    (and (or (< param0?25 0) (< (- param0?25) 0))
                           (<= (+ (- param1?24) tr?17) 0) (= havoc?16 0)
                           (= (+ tr?15 (- phi_param0?1)) 0)
                           (= (+ type_err?14 (- phi_param0@pos?2)) 0)
                           (= (+ type_err?13 (- phi_param1@pos?3)) 0)
                           (= (+ type_err?12 (- phi_param0@width?4)) 0)
                           (= (+ type_err?11 (- phi_param1@width?5)) 0)))
                (= (+ |param1@width'?18| (- phi_param1@width?5)) 0)
                (= (+ |param0@width'?19| (- phi_param0@width?4)) 0)
                (= (+ |param1@pos'?20| (- phi_param1@pos?3)) 0)
                (= (+ |param0@pos'?21| (- phi_param0@pos?2)) 0)
                (= (+ |param1'?22| (- param1?24)) 0)
                (= (+ |param0'?23| (- phi_param0?1)) 0)
                (= term_to_project_onto4 (+ |param0'?23| (- param0?25)))
                (= term_to_project_onto3 (+ |param1'?22| (- param1?24)))
                (= term_to_project_onto2 (+ |param0@pos'?21| (- param0@pos)))
                (= term_to_project_onto1 (+ |param1@pos'?20| (- param1@pos)))
                (= term_to_project_onto0 (+ |param0@width'?19|
                                              (- param0@width)))
                (= term_to_project_onto (+ |param1@width'?18|
                                             (- param1@width))))))
(check-sat)
